NAME : portcgen-25-23
COMMENT : portcgen N=25, seed=23
TYPE : TSP
DIMENSION : 25
EDGE_WEIGHT_TYPE : EUC_2D
NODE_COORD_SECTION
1 124648 -29116
2 51726 45549
3 -71800 78152
4 209045 11337
5 330253 46276
6 239134 267385
7 418796 -227957
8 -105601 -29871
9 344666 -91119
10 71451 -145897
11 75409 11503
12 77948 -3131
13 -288948 -241585
14 -138220 -79840
15 -20548 -91201
16 6626 -227466
17 -266578 -125601
18 -164385 -47876
19 -103645 111541
20 -177043 41550
21 194560 151531
22 159064 -135514
23 -56854 -115815
24 -83548 -88747
25 -24516 404961
